Name : 5i45-18
DIMENSION : 45
NUMBER_OF_CLUSTERS: 5
NODE_COORD_SECTION
1 954  1340
2 675  840
3 683  535
4 505  546
5 768  379
6 750  380
7 1078  771
8 991  288
9 1061  0
10 701  173
11 578  377
12 682  608
13 919  -194
14 620  622
15 604  711
16 801  175
17 828  439
18 695  414
19 863  569
20 743  698
21 1155  751
22 587  1143
23 903  896
24 764  549
25 636  99
26 386  726
27 701  171
28 733  680
29 1016  676
30 700  414
31 896  612
32 318  389
33 985  507
34 311  400
35 723  322
36 826  505
37 585  588
38 435  418
39 760  690
40 779  1015
41 823  338
42 560  428
43 805  310
44 839  1118
45 1042  554	
CLUSTER_SECTION:
1 2 -1
2 6 29 33 -1
3 5 9 -1
4 1 44 -1
5 3 4 18 32 -1
